D4 LOG: Running /Users/bryant/repos/d4/d4 ./mc2022_track2_133.cnf -dDNNF -out=./mc2022_track2_133.cnnf -drat=./mc2022_track2_133.drat
D4 LOG: Time limit 1000 seconds
c [33mBenchmark Information[0m
c Number of variables: 24488
c Number of clauses: 44670
c Number of literals: 80840
c Preproc options: 
c
c Preproc time: 0.006149
c Integer mode 
c
c [1m[32mOption list [0m
c Caching: 1
c Reduce cache procedure level: 20
c Strategy for Reducing the cache: 0
c Cache representation: CL
c Part of the formula that is cached: NT
c Variable heuristic: VSADS
c Phase heuristic: TRUE
c Partitioning heuristic: CB + graph reduction + equivalence simplication
c
c ----------------------------------------------------------------------------------------------------------------------------------------------------------
c   #compile |       time |    #posHit |    #negHit |     #split |    Mem(MB) |     #nodes |     #edges | #equivCall | #Dec. Node | #paritioner |  limit dyn | 
c ----------------------------------------------------------------------------------------------------------------------------------------------------------
c top 5: -20520 
c top 5: -20520 -5958 
c top 5: -20520 -5958 -19848 
c top 5: -20520 -5958 -19848 -20384 
c unitLits 1048577 4194308 Bytes
c top 5: -20520 5958 
c top 5: -20520 5958 -20581 
c top 5: -20520 5958 -20581 -19119 
c top 5: -20520 5958 -20581 19119 
c top 5: 20520 
c top 5: 20520 -20581 
c top 5: 20520 -20581 -19119 
c top 5: 20520 -20581 -19119 -19118 
c ----------------------------------------------------------------------------------------------------------------------------------------------------------
c
c [1m[31mStatistics [0m
c [33mCompilation Information[0m
c Number of compiled node: 12039
c Number of split formula: 24950
c Number of decision node: 6019
c Number of node built on domain constraints: 0
c Number of decomposable AND nodes: 7704
c Number of backbone calls: 0
c Number of partitioner calls: 2724
c Average number of assigned literal to obtain decomposable AND nodes: 23951.51/24488
c Minimum number of assigned variable where a decomposable AND appeared: 22727
c 
c [33mGraph Information[0m
c Number of nodes: 660409
c Number of edges: 683674
c 
c [1m[34mCache Information[0m
c Memory used: 613 MB
c
c Number of positive hit: 21814
c Number of negative hit: 6019
c Number of reduceCall: 0
c
c Final time: 22.740615
c 
s 0.000000
D4 LOG: Elapsed time = 24.050 seconds
D4 OUTCOME: normal
mc2022_track2_133. D4 NNF LOG: size ./mc2022_track2_133.cnnf 50715 lines 13455583 bytes
mc2022_track2_133. D4 DRAT LOG: size ./mc2022_track2_133.drat 414989 lines 82063145 bytes
DTRIM LOG: Running /Users/bryant/repos/drat-trim/drat-trim ./mc2022_track2_133.cnf ./mc2022_track2_133.drat -f -U
DTRIM LOG: Time limit 1000 seconds

c parsing input formula with 24488 variables and 44670 clauses

c finished parsing

c start forward verification

c 27387 of 44670 clauses in core                            

c 164975 of 229285 lemmas in core using 31912031 resolution steps

c 0 RAT lemmas in core; 0 redundant literals in core lemmas

c optimized proofs are not supported for forward checking

c VERIFIED derivation: all lemmas preserve satisfiability

c WARNING: no empty clause detected, this is not a refutation

s DERIVATION

c verification time: 27.973 seconds
DTRIM LOG: Elapsed time = 28.002 seconds
DTRIM OUTCOME: normal
CHECK LOG: Running /Users/bryant/repos/d4/certificator ./mc2022_track2_133.cnf ./mc2022_track2_133.cnnf ./mc2022_track2_133.drat
CHECK LOG: Time limit 1000 seconds
c CNF information
c Number of variables: 24488
c Number of clauses: 44670
c
c DRAT information
c Number of drat clauses: 229284
c
c DDnnf parsing: 0.061
c DDnnf checked: 0.898
c
c Global time: 1.116
CHECK LOG: Elapsed time = 1.212 seconds
CHECK OUTCOME: normal
OVERALL LOG: Elapsed time = 53.388 seconds
OVERALL OUTCOME: normal
